p edge 250 3141
e 1 3
e 1 4
e 1 24
e 1 31
e 1 37
e 1 38
e 1 40
e 1 48
e 1 62
e 1 64
e 1 70
e 1 78
e 1 79
e 1 85
e 1 88
e 1 89
e 1 92
e 1 101
e 1 107
e 1 162
e 1 163
e 1 166
e 1 190
e 1 200
e 1 202
e 1 213
e 1 222
e 1 232
e 1 241
e 2 16
e 2 18
e 2 26
e 2 28
e 2 35
e 2 45
e 2 48
e 2 59
e 2 60
e 2 67
e 2 68
e 2 72
e 2 84
e 2 98
e 2 104
e 2 105
e 2 117
e 2 121
e 2 122
e 2 126
e 2 130
e 2 132
e 2 134
e 2 145
e 2 155
e 2 158
e 2 172
e 2 174
e 2 176
e 2 177
e 2 183
e 2 185
e 2 186
e 2 191
e 2 200
e 2 209
e 2 210
e 2 244
e 3 7
e 3 15
e 3 17
e 3 28
e 3 33
e 3 38
e 3 44
e 3 89
e 3 120
e 3 125
e 3 127
e 3 130
e 3 164
e 3 166
e 3 175
e 3 179
e 3 193
e 3 194
e 3 200
e 3 206
e 3 213
e 3 223
e 3 236
e 3 242
e 4 9
e 4 15
e 4 20
e 4 32
e 4 34
e 4 56
e 4 61
e 4 76
e 4 111
e 4 114
e 4 136
e 4 140
e 4 143
e 4 167
e 4 174
e 4 176
e 4 178
e 4 192
e 4 211
e 4 235
e 4 236
e 4 240
e 4 243
e 5 10
e 5 11
e 5 15
e 5 19
e 5 20
e 5 22
e 5 26
e 5 48
e 5 53
e 5 56
e 5 79
e 5 90
e 5 98
e 5 102
e 5 123
e 5 126
e 5 135
e 5 139
e 5 141
e 5 151
e 5 167
e 5 171
e 5 193
e 5 196
e 5 198
e 5 209
e 5 225
e 5 232
e 5 236
e 5 238
e 5 241
e 5 245
e 6 7
e 6 34
e 6 39
e 6 45
e 6 52
e 6 101
e 6 107
e 6 143
e 6 164
e 6 173
e 6 175
e 6 205
e 6 208
e 6 233
e 6 236
e 7 32
e 7 44
e 7 48
e 7 61
e 7 87
e 7 95
e 7 97
e 7 99
e 7 104
e 7 109
e 7 110
e 7 126
e 7 128
e 7 131
e 7 141
e 7 151
e 7 153
e 7 163
e 7 166
e 7 168
e 7 174
e 7 175
e 7 190
e 7 222
e 7 226
e 7 227
e 7 231
e 7 236
e 8 9
e 8 62
e 8 74
e 8 88
e 8 89
e 8 109
e 8 133
e 8 134
e 8 143
e 8 148
e 8 156
e 8 159
e 8 190
e 8 211
e 8 219
e 8 226
e 8 229
e 8 233
e 8 237
e 9 28
e 9 30
e 9 49
e 9 52
e 9 61
e 9 70
e 9 90
e 9 93
e 9 98
e 9 137
e 9 147
e 9 155
e 9 160
e 9 165
e 9 204
e 9 208
e 9 226
e 9 236
e 9 239
e 9 245
e 9 249
e 10 31
e 10 41
e 10 45
e 10 53
e 10 60
e 10 70
e 10 71
e 10 77
e 10 81
e 10 98
e 10 99
e 10 106
e 10 119
e 10 120
e 10 136
e 10 155
e 10 167
e 10 169
e 10 175
e 10 180
e 10 187
e 10 196
e 10 221
e 10 240
e 11 15
e 11 31
e 11 41
e 11 43
e 11 59
e 11 60
e 11 74
e 11 82
e 11 89
e 11 114
e 11 120
e 11 122
e 11 123
e 11 126
e 11 130
e 11 133
e 11 145
e 11 154
e 11 155
e 11 159
e 11 168
e 11 174
e 11 177
e 11 194
e 11 197
e 11 200
e 11 207
e 11 211
e 11 217
e 11 220
e 11 237
e 11 249
e 12 27
e 12 37
e 12 40
e 12 42
e 12 43
e 12 48
e 12 59
e 12 72
e 12 73
e 12 79
e 12 87
e 12 89
e 12 93
e 12 106
e 12 127
e 12 140
e 12 153
e 12 162
e 12 164
e 12 169
e 12 171
e 12 186
e 12 189
e 12 193
e 12 198
e 12 219
e 12 223
e 12 225
e 12 238
e 12 243
e 12 244
e 12 246
e 13 42
e 13 47
e 13 64
e 13 70
e 13 79
e 13 88
e 13 103
e 13 104
e 13 109
e 13 112
e 13 113
e 13 116
e 13 126
e 13 145
e 13 161
e 13 163
e 13 165
e 13 173
e 13 198
e 13 202
e 13 203
e 13 212
e 13 213
e 13 229
e 13 235
e 13 239
e 13 245
e 14 17
e 14 25
e 14 34
e 14 37
e 14 45
e 14 58
e 14 68
e 14 72
e 14 86
e 14 103
e 14 104
e 14 110
e 14 111
e 14 114
e 14 120
e 14 122
e 14 127
e 14 144
e 14 146
e 14 169
e 14 173
e 14 179
e 14 191
e 14 194
e 14 199
e 14 220
e 14 224
e 14 226
e 14 228
e 14 236
e 14 243
e 14 244
e 14 245
e 15 17
e 15 31
e 15 34
e 15 37
e 15 53
e 15 54
e 15 89
e 15 101
e 15 119
e 15 128
e 15 148
e 15 153
e 15 161
e 15 167
e 15 176
e 15 179
e 15 200
e 15 202
e 15 203
e 15 208
e 15 218
e 15 222
e 15 246
e 15 249
e 16 26
e 16 40
e 16 48
e 16 55
e 16 61
e 16 64
e 16 67
e 16 71
e 16 73
e 16 85
e 16 86
e 16 111
e 16 112
e 16 118
e 16 125
e 16 126
e 16 140
e 16 142
e 16 156
e 16 162
e 16 166
e 16 189
e 16 211
e 16 225
e 16 226
e 16 231
e 16 249
e 17 18
e 17 30
e 17 48
e 17 51
e 17 62
e 17 81
e 17 120
e 17 147
e 17 152
e 17 156
e 17 163
e 17 171
e 17 178
e 17 207
e 17 222
e 17 244
e 18 20
e 18 22
e 18 26
e 18 39
e 18 54
e 18 58
e 18 70
e 18 77
e 18 97
e 18 103
e 18 105
e 18 106
e 18 119
e 18 127
e 18 143
e 18 150
e 18 157
e 18 161
e 18 175
e 18 203
e 18 225
e 18 238
e 18 249
e 19 21
e 19 25
e 19 34
e 19 35
e 19 37
e 19 77
e 19 78
e 19 92
e 19 95
e 19 103
e 19 121
e 19 137
e 19 139
e 19 141
e 19 143
e 19 149
e 19 150
e 19 151
e 19 156
e 19 166
e 19 167
e 19 184
e 19 189
e 19 193
e 19 199
e 19 201
e 19 212
e 19 237
e 19 239
e 19 241
e 20 53
e 20 72
e 20 73
e 20 94
e 20 104
e 20 118
e 20 122
e 20 127
e 20 134
e 20 137
e 20 154
e 20 164
e 20 178
e 20 193
e 20 213
e 20 216
e 20 230
e 20 234
e 20 236
e 20 247
e 21 25
e 21 27
e 21 28
e 21 35
e 21 43
e 21 51
e 21 67
e 21 69
e 21 74
e 21 80
e 21 89
e 21 98
e 21 103
e 21 130
e 21 170
e 21 172
e 21 184
e 21 206
e 21 209
e 21 217
e 21 219
e 21 220
e 21 224
e 21 226
e 21 230
e 21 231
e 21 243
e 21 245
e 21 246
e 22 49
e 22 51
e 22 57
e 22 80
e 22 82
e 22 100
e 22 101
e 22 104
e 22 118
e 22 120
e 22 138
e 22 140
e 22 143
e 22 167
e 22 171
e 22 182
e 22 185
e 22 197
e 22 198
e 22 206
e 22 223
e 22 232
e 22 239
e 22 243
e 23 46
e 23 58
e 23 64
e 23 81
e 23 84
e 23 96
e 23 97
e 23 124
e 23 131
e 23 169
e 23 176
e 23 190
e 23 198
e 23 209
e 23 210
e 23 224
e 23 228
e 23 229
e 23 241
e 23 247
e 24 38
e 24 66
e 24 67
e 24 89
e 24 95
e 24 96
e 24 101
e 24 103
e 24 104
e 24 118
e 24 119
e 24 124
e 24 141
e 24 147
e 24 152
e 24 160
e 24 171
e 24 173
e 24 184
e 24 186
e 24 198
e 24 199
e 24 210
e 24 218
e 24 220
e 24 223
e 24 243
e 25 32
e 25 38
e 25 47
e 25 63
e 25 71
e 25 74
e 25 83
e 25 88
e 25 100
e 25 111
e 25 114
e 25 120
e 25 127
e 25 134
e 25 135
e 25 148
e 25 157
e 25 166
e 25 182
e 25 189
e 25 191
e 25 201
e 25 204
e 25 210
e 25 236
e 26 68
e 26 69
e 26 79
e 26 93
e 26 94
e 26 98
e 26 119
e 26 137
e 26 139
e 26 159
e 26 164
e 26 167
e 26 182
e 26 188
e 26 199
e 26 250
e 27 28
e 27 31
e 27 38
e 27 46
e 27 71
e 27 89
e 27 95
e 27 103
e 27 106
e 27 113
e 27 144
e 27 155
e 27 156
e 27 166
e 27 183
e 27 201
e 27 214
e 27 215
e 27 220
e 27 221
e 27 223
e 27 228
e 28 47
e 28 50
e 28 57
e 28 58
e 28 60
e 28 66
e 28 67
e 28 77
e 28 82
e 28 105
e 28 112
e 28 121
e 28 136
e 28 140
e 28 158
e 28 164
e 28 184
e 28 207
e 28 225
e 28 237
e 28 241
e 28 246
e 28 248
e 29 34
e 29 46
e 29 57
e 29 76
e 29 88
e 29 117
e 29 122
e 29 131
e 29 168
e 29 182
e 29 187
e 29 199
e 29 207
e 29 208
e 29 215
e 29 226
e 29 249
e 29 250
e 30 43
e 30 54
e 30 56
e 30 67
e 30 78
e 30 79
e 30 91
e 30 95
e 30 124
e 30 125
e 30 150
e 30 204
e 30 209
e 30 217
e 30 220
e 31 33
e 31 38
e 31 40
e 31 54
e 31 57
e 31 64
e 31 66
e 31 68
e 31 79
e 31 101
e 31 123
e 31 159
e 31 167
e 31 198
e 31 206
e 31 215
e 31 233
e 31 234
e 31 237
e 32 33
e 32 40
e 32 49
e 32 100
e 32 102
e 32 130
e 32 132
e 32 134
e 32 136
e 32 147
e 32 150
e 32 157
e 32 182
e 32 188
e 32 198
e 32 200
e 32 205
e 32 214
e 32 217
e 32 219
e 32 221
e 33 40
e 33 43
e 33 56
e 33 59
e 33 84
e 33 101
e 33 104
e 33 110
e 33 113
e 33 114
e 33 122
e 33 142
e 33 153
e 33 177
e 33 180
e 33 182
e 33 186
e 33 192
e 33 199
e 33 209
e 33 230
e 33 236
e 33 243
e 34 36
e 34 47
e 34 53
e 34 68
e 34 74
e 34 75
e 34 79
e 34 85
e 34 93
e 34 100
e 34 102
e 34 109
e 34 110
e 34 120
e 34 132
e 34 166
e 34 167
e 34 168
e 34 173
e 34 185
e 34 188
e 34 194
e 34 215
e 34 222
e 34 232
e 34 234
e 34 244
e 35 38
e 35 54
e 35 57
e 35 101
e 35 104
e 35 128
e 35 143
e 35 154
e 35 166
e 35 172
e 35 181
e 35 190
e 35 206
e 35 210
e 35 226
e 35 230
e 35 245
e 36 52
e 36 58
e 36 60
e 36 62
e 36 65
e 36 72
e 36 74
e 36 79
e 36 97
e 36 123
e 36 132
e 36 135
e 36 138
e 36 156
e 36 159
e 36 162
e 36 169
e 36 170
e 36 185
e 36 188
e 36 193
e 36 199
e 36 220
e 36 237
e 36 238
e 36 247
e 36 249
e 37 44
e 37 57
e 37 75
e 37 76
e 37 109
e 37 113
e 37 120
e 37 130
e 37 135
e 37 139
e 37 146
e 37 151
e 37 154
e 37 156
e 37 158
e 37 167
e 37 172
e 37 178
e 37 193
e 37 211
e 37 215
e 37 220
e 37 248
e 38 41
e 38 44
e 38 45
e 38 52
e 38 63
e 38 68
e 38 82
e 38 96
e 38 100
e 38 121
e 38 122
e 38 128
e 38 131
e 38 142
e 38 164
e 38 165
e 38 180
e 38 186
e 38 192
e 38 205
e 38 207
e 38 249
e 39 51
e 39 67
e 39 87
e 39 92
e 39 105
e 39 107
e 39 121
e 39 141
e 39 145
e 39 176
e 39 183
e 39 187
e 39 188
e 39 201
e 39 204
e 39 215
e 39 220
e 39 222
e 39 226
e 39 231
e 40 54
e 40 65
e 40 71
e 40 72
e 40 79
e 40 84
e 40 97
e 40 99
e 40 117
e 40 147
e 40 160
e 40 163
e 40 176
e 40 183
e 40 212
e 40 227
e 40 237
e 41 54
e 41 59
e 41 60
e 41 81
e 41 82
e 41 133
e 41 137
e 41 154
e 41 205
e 41 206
e 41 213
e 41 232
e 41 233
e 41 247
e 41 250
e 42 45
e 42 58
e 42 61
e 42 62
e 42 78
e 42 80
e 42 82
e 42 95
e 42 111
e 42 117
e 42 120
e 42 124
e 42 136
e 42 147
e 42 152
e 42 154
e 42 161
e 42 185
e 42 198
e 42 206
e 42 209
e 42 212
e 42 217
e 42 236
e 42 250
e 43 82
e 43 93
e 43 106
e 43 111
e 43 114
e 43 121
e 43 122
e 43 123
e 43 129
e 43 139
e 43 140
e 43 156
e 43 159
e 43 178
e 43 182
e 43 185
e 43 194
e 43 200
e 43 203
e 43 213
e 43 216
e 43 217
e 43 230
e 43 239
e 43 240
e 44 49
e 44 52
e 44 81
e 44 87
e 44 94
e 44 118
e 44 123
e 44 128
e 44 146
e 44 158
e 44 162
e 44 169
e 44 176
e 44 198
e 44 206
e 44 207
e 44 217
e 44 242
e 44 248
e 45 51
e 45 55
e 45 73
e 45 77
e 45 91
e 45 106
e 45 111
e 45 126
e 45 134
e 45 149
e 45 151
e 45 153
e 45 173
e 45 221
e 45 226
e 45 243
e 46 55
e 46 61
e 46 67
e 46 68
e 46 73
e 46 114
e 46 123
e 46 130
e 46 136
e 46 137
e 46 139
e 46 147
e 46 157
e 46 177
e 46 193
e 46 210
e 46 217
e 46 220
e 46 246
e 47 54
e 47 72
e 47 73
e 47 88
e 47 105
e 47 115
e 47 116
e 47 132
e 47 133
e 47 136
e 47 138
e 47 143
e 47 144
e 47 147
e 47 148
e 47 175
e 47 179
e 47 190
e 47 196
e 47 201
e 47 225
e 47 234
e 47 242
e 48 52
e 48 59
e 48 74
e 48 76
e 48 96
e 48 112
e 48 136
e 48 141
e 48 151
e 48 154
e 48 162
e 48 170
e 48 194
e 48 208
e 48 214
e 48 217
e 48 236
e 48 247
e 49 81
e 49 83
e 49 87
e 49 88
e 49 108
e 49 124
e 49 129
e 49 145
e 49 154
e 49 155
e 49 161
e 49 167
e 49 177
e 49 180
e 49 193
e 49 212
e 49 217
e 49 227
e 49 240
e 49 247
e 49 249
e 50 54
e 50 56
e 50 67
e 50 71
e 50 88
e 50 89
e 50 96
e 50 107
e 50 129
e 50 130
e 50 133
e 50 153
e 50 155
e 50 157
e 50 203
e 50 207
e 50 211
e 50 215
e 50 219
e 50 235
e 51 58
e 51 71
e 51 73
e 51 78
e 51 86
e 51 96
e 51 148
e 51 158
e 51 174
e 51 182
e 51 186
e 51 188
e 51 192
e 51 195
e 51 208
e 51 213
e 51 228
e 51 244
e 52 57
e 52 59
e 52 62
e 52 64
e 52 66
e 52 87
e 52 107
e 52 116
e 52 131
e 52 137
e 52 142
e 52 146
e 52 154
e 52 155
e 52 161
e 52 163
e 52 167
e 52 190
e 52 192
e 52 194
e 52 226
e 52 240
e 52 245
e 52 249
e 53 91
e 53 109
e 53 111
e 53 120
e 53 127
e 53 128
e 53 157
e 53 158
e 53 167
e 53 197
e 53 211
e 53 213
e 53 224
e 53 244
e 53 245
e 53 248
e 54 55
e 54 58
e 54 69
e 54 93
e 54 108
e 54 124
e 54 126
e 54 132
e 54 145
e 54 147
e 54 153
e 54 181
e 54 187
e 54 207
e 54 211
e 54 223
e 54 231
e 54 235
e 54 245
e 54 248
e 55 67
e 55 73
e 55 74
e 55 75
e 55 101
e 55 137
e 55 144
e 55 150
e 55 162
e 55 171
e 55 176
e 55 182
e 55 184
e 55 187
e 55 207
e 55 217
e 55 221
e 55 244
e 55 249
e 56 64
e 56 69
e 56 104
e 56 107
e 56 115
e 56 118
e 56 125
e 56 132
e 56 149
e 56 152
e 56 162
e 56 169
e 56 175
e 56 184
e 56 190
e 56 195
e 56 200
e 56 206
e 56 237
e 56 249
e 56 250
e 57 82
e 57 89
e 57 108
e 57 118
e 57 134
e 57 136
e 57 137
e 57 138
e 57 148
e 57 153
e 57 158
e 57 168
e 57 175
e 57 181
e 57 184
e 57 201
e 57 205
e 57 208
e 57 219
e 58 59
e 58 67
e 58 74
e 58 75
e 58 78
e 58 88
e 58 101
e 58 108
e 58 148
e 58 164
e 58 172
e 58 180
e 58 211
e 58 229
e 58 237
e 58 240
e 58 248
e 59 63
e 59 70
e 59 72
e 59 81
e 59 82
e 59 85
e 59 110
e 59 129
e 59 163
e 59 186
e 59 213
e 59 217
e 59 226
e 59 227
e 60 66
e 60 88
e 60 91
e 60 95
e 60 97
e 60 98
e 60 101
e 60 117
e 60 121
e 60 155
e 60 159
e 60 164
e 60 178
e 60 187
e 60 191
e 60 205
e 60 233
e 60 239
e 60 243
e 60 248
e 61 66
e 61 75
e 61 88
e 61 103
e 61 133
e 61 169
e 61 180
e 61 188
e 61 193
e 61 198
e 61 207
e 61 214
e 61 216
e 61 219
e 61 232
e 61 234
e 61 236
e 61 241
e 62 68
e 62 70
e 62 81
e 62 85
e 62 92
e 62 94
e 62 107
e 62 112
e 62 142
e 62 143
e 62 146
e 62 154
e 62 157
e 62 166
e 62 212
e 62 231
e 62 233
e 62 236
e 62 240
e 62 243
e 63 71
e 63 91
e 63 110
e 63 116
e 63 140
e 63 170
e 63 187
e 63 192
e 63 193
e 63 228
e 63 240
e 63 246
e 64 70
e 64 71
e 64 82
e 64 118
e 64 124
e 64 131
e 64 137
e 64 169
e 64 201
e 64 203
e 64 244
e 64 245
e 65 72
e 65 79
e 65 94
e 65 95
e 65 97
e 65 105
e 65 129
e 65 142
e 65 161
e 65 183
e 65 185
e 65 190
e 65 203
e 65 209
e 65 221
e 65 227
e 65 241
e 65 242
e 66 70
e 66 72
e 66 80
e 66 81
e 66 89
e 66 120
e 66 121
e 66 124
e 66 132
e 66 151
e 66 196
e 66 216
e 67 70
e 67 78
e 67 96
e 67 98
e 67 166
e 67 170
e 67 182
e 67 185
e 67 194
e 67 197
e 67 200
e 67 201
e 67 208
e 67 213
e 67 216
e 67 227
e 67 243
e 68 74
e 68 90
e 68 91
e 68 93
e 68 101
e 68 106
e 68 113
e 68 121
e 68 124
e 68 127
e 68 133
e 68 141
e 68 178
e 68 183
e 68 186
e 68 202
e 68 203
e 68 205
e 68 218
e 68 220
e 68 222
e 69 96
e 69 113
e 69 123
e 69 125
e 69 127
e 69 136
e 69 146
e 69 155
e 69 167
e 69 171
e 69 178
e 69 195
e 69 197
e 69 209
e 69 212
e 69 223
e 69 231
e 69 236
e 70 78
e 70 81
e 70 88
e 70 107
e 70 109
e 70 112
e 70 124
e 70 132
e 70 140
e 70 153
e 70 185
e 70 222
e 70 231
e 70 237
e 70 242
e 70 243
e 71 77
e 71 80
e 71 90
e 71 117
e 71 120
e 71 131
e 71 137
e 71 142
e 71 159
e 71 182
e 71 189
e 71 194
e 71 196
e 71 205
e 71 206
e 71 209
e 71 210
e 71 225
e 71 227
e 71 236
e 72 101
e 72 110
e 72 127
e 72 130
e 72 141
e 72 148
e 72 170
e 72 224
e 72 236
e 72 237
e 72 238
e 72 244
e 72 245
e 72 249
e 73 76
e 73 92
e 73 93
e 73 103
e 73 108
e 73 112
e 73 114
e 73 119
e 73 121
e 73 153
e 73 176
e 73 186
e 73 187
e 73 188
e 73 201
e 73 208
e 73 209
e 73 210
e 73 237
e 73 249
e 74 77
e 74 80
e 74 88
e 74 90
e 74 112
e 74 130
e 74 140
e 74 143
e 74 151
e 74 152
e 74 158
e 74 162
e 74 175
e 74 178
e 74 186
e 74 194
e 74 204
e 74 221
e 74 242
e 74 249
e 75 83
e 75 89
e 75 90
e 75 100
e 75 117
e 75 132
e 75 133
e 75 136
e 75 139
e 75 141
e 75 166
e 75 168
e 75 171
e 75 176
e 75 185
e 75 192
e 75 194
e 75 200
e 75 208
e 75 219
e 75 221
e 75 233
e 75 245
e 76 77
e 76 96
e 76 100
e 76 109
e 76 130
e 76 137
e 76 158
e 76 160
e 76 163
e 76 179
e 76 182
e 76 190
e 76 193
e 76 208
e 76 232
e 76 243
e 76 247
e 77 84
e 77 85
e 77 88
e 77 91
e 77 98
e 77 100
e 77 102
e 77 129
e 77 132
e 77 134
e 77 135
e 77 149
e 77 157
e 77 187
e 77 207
e 77 208
e 77 217
e 77 220
e 77 238
e 78 89
e 78 101
e 78 125
e 78 133
e 78 140
e 78 141
e 78 142
e 78 150
e 78 163
e 78 169
e 78 233
e 78 237
e 78 241
e 79 82
e 79 84
e 79 95
e 79 99
e 79 101
e 79 108
e 79 128
e 79 146
e 79 163
e 79 169
e 79 179
e 79 187
e 79 190
e 79 209
e 79 214
e 79 215
e 79 218
e 79 225
e 79 249
e 80 86
e 80 90
e 80 119
e 80 128
e 80 132
e 80 152
e 80 155
e 80 163
e 80 183
e 80 197
e 80 207
e 80 208
e 80 217
e 80 222
e 80 228
e 80 231
e 80 236
e 80 244
e 80 245
e 80 248
e 80 249
e 81 84
e 81 85
e 81 91
e 81 97
e 81 112
e 81 131
e 81 138
e 81 142
e 81 143
e 81 149
e 81 161
e 81 171
e 81 172
e 81 189
e 81 194
e 81 198
e 81 199
e 81 212
e 81 250
e 82 111
e 82 120
e 82 123
e 82 138
e 82 163
e 82 164
e 82 171
e 82 217
e 82 234
e 82 249
e 82 250
e 83 84
e 83 94
e 83 105
e 83 109
e 83 116
e 83 126
e 83 137
e 83 154
e 83 163
e 83 168
e 83 171
e 83 179
e 83 210
e 83 227
e 83 246
e 83 247
e 83 248
e 83 249
e 84 107
e 84 130
e 84 132
e 84 135
e 84 155
e 84 156
e 84 169
e 84 188
e 84 205
e 84 206
e 84 216
e 84 233
e 84 238
e 85 93
e 85 98
e 85 100
e 85 110
e 85 115
e 85 132
e 85 162
e 85 163
e 85 168
e 85 173
e 85 177
e 85 217
e 85 222
e 85 224
e 85 232
e 85 233
e 86 87
e 86 99
e 86 103
e 86 109
e 86 110
e 86 116
e 86 141
e 86 147
e 86 149
e 86 157
e 86 169
e 86 182
e 86 192
e 86 207
e 86 219
e 86 231
e 87 91
e 87 117
e 87 119
e 87 156
e 87 169
e 87 170
e 87 172
e 87 187
e 87 192
e 87 193
e 87 194
e 87 204
e 87 221
e 88 102
e 88 121
e 88 124
e 88 129
e 88 144
e 88 182
e 88 190
e 88 223
e 88 230
e 89 116
e 89 122
e 89 129
e 89 130
e 89 135
e 89 148
e 89 170
e 89 171
e 89 185
e 89 186
e 89 217
e 89 224
e 89 231
e 89 232
e 89 237
e 89 241
e 90 101
e 90 119
e 90 125
e 90 141
e 90 164
e 90 178
e 90 180
e 90 188
e 90 199
e 90 204
e 90 209
e 90 211
e 90 218
e 90 231
e 91 101
e 91 110
e 91 113
e 91 117
e 91 118
e 91 137
e 91 145
e 91 162
e 91 177
e 91 197
e 91 198
e 91 203
e 91 206
e 91 216
e 91 220
e 91 226
e 91 231
e 91 234
e 91 235
e 91 237
e 91 241
e 92 106
e 92 119
e 92 125
e 92 126
e 92 151
e 92 159
e 92 171
e 92 175
e 92 179
e 92 196
e 92 202
e 92 206
e 92 222
e 92 236
e 92 239
e 92 245
e 92 246
e 92 248
e 93 100
e 93 102
e 93 103
e 93 116
e 93 118
e 93 131
e 93 149
e 93 158
e 93 160
e 93 164
e 93 175
e 93 184
e 93 188
e 93 193
e 93 208
e 93 215
e 93 221
e 93 222
e 93 243
e 94 105
e 94 108
e 94 134
e 94 144
e 94 145
e 94 170
e 94 188
e 94 207
e 94 208
e 94 216
e 94 219
e 95 134
e 95 141
e 95 153
e 95 160
e 95 167
e 95 179
e 95 184
e 95 213
e 95 217
e 95 220
e 95 223
e 95 229
e 95 238
e 95 239
e 95 241
e 95 243
e 96 108
e 96 130
e 96 156
e 96 172
e 96 178
e 96 187
e 96 200
e 96 216
e 96 230
e 96 231
e 97 112
e 97 141
e 97 143
e 97 145
e 97 166
e 97 170
e 97 173
e 97 180
e 97 206
e 97 222
e 97 240
e 97 244
e 97 245
e 97 248
e 98 112
e 98 122
e 98 128
e 98 131
e 98 132
e 98 136
e 98 155
e 98 173
e 98 185
e 98 188
e 98 189
e 98 191
e 98 199
e 98 201
e 98 247
e 98 249
e 99 106
e 99 112
e 99 114
e 99 130
e 99 135
e 99 145
e 99 149
e 99 155
e 99 172
e 99 175
e 99 178
e 99 184
e 99 187
e 99 189
e 99 194
e 99 202
e 99 230
e 100 129
e 100 138
e 100 187
e 100 191
e 100 193
e 100 203
e 100 204
e 100 216
e 100 229
e 100 231
e 100 232
e 100 233
e 100 240
e 100 242
e 100 249
e 101 144
e 101 155
e 101 165
e 101 176
e 101 183
e 101 198
e 101 213
e 101 220
e 101 227
e 101 232
e 101 236
e 101 249
e 102 113
e 102 115
e 102 120
e 102 137
e 102 145
e 102 206
e 102 213
e 102 217
e 102 219
e 102 223
e 102 227
e 102 233
e 102 237
e 102 238
e 102 239
e 102 245
e 103 136
e 103 154
e 103 160
e 103 163
e 103 175
e 103 183
e 103 189
e 103 196
e 103 214
e 103 217
e 103 223
e 103 225
e 103 231
e 103 235
e 103 250
e 104 112
e 104 122
e 104 123
e 104 126
e 104 135
e 104 138
e 104 181
e 104 187
e 104 192
e 104 196
e 104 199
e 104 210
e 104 214
e 104 228
e 104 238
e 104 240
e 104 244
e 105 119
e 105 123
e 105 133
e 105 149
e 105 156
e 105 169
e 105 186
e 105 205
e 105 208
e 105 224
e 105 231
e 105 238
e 105 240
e 106 118
e 106 119
e 106 145
e 106 161
e 106 166
e 106 168
e 106 169
e 106 171
e 106 178
e 106 184
e 106 208
e 106 214
e 106 215
e 106 217
e 106 247
e 107 134
e 107 138
e 107 163
e 107 167
e 107 178
e 107 200
e 107 201
e 107 212
e 107 216
e 107 220
e 107 234
e 107 239
e 107 246
e 107 247
e 108 116
e 108 128
e 108 139
e 108 140
e 108 169
e 108 174
e 108 176
e 108 179
e 108 182
e 108 188
e 108 189
e 108 213
e 108 229
e 108 242
e 108 250
e 109 112
e 109 132
e 109 146
e 109 152
e 109 168
e 109 177
e 109 178
e 109 184
e 109 185
e 109 188
e 109 197
e 109 198
e 109 202
e 109 204
e 109 214
e 109 215
e 109 234
e 109 237
e 109 245
e 110 119
e 110 127
e 110 133
e 110 142
e 110 145
e 110 148
e 110 149
e 110 152
e 110 162
e 110 169
e 110 208
e 110 215
e 110 223
e 110 236
e 110 239
e 111 115
e 111 119
e 111 134
e 111 156
e 111 164
e 111 169
e 111 175
e 111 179
e 111 207
e 111 208
e 111 217
e 111 221
e 111 247
e 112 113
e 112 115
e 112 121
e 112 130
e 112 132
e 112 139
e 112 143
e 112 159
e 112 163
e 112 166
e 112 185
e 112 186
e 112 187
e 112 198
e 112 207
e 112 208
e 112 213
e 112 214
e 112 219
e 112 222
e 112 241
e 112 244
e 112 249
e 113 143
e 113 148
e 113 154
e 113 163
e 113 194
e 113 209
e 113 218
e 113 241
e 114 119
e 114 124
e 114 129
e 114 144
e 114 146
e 114 148
e 114 149
e 114 161
e 114 169
e 114 178
e 114 179
e 114 192
e 114 227
e 114 241
e 114 245
e 115 119
e 115 122
e 115 126
e 115 129
e 115 133
e 115 139
e 115 156
e 115 161
e 115 171
e 115 191
e 115 219
e 115 238
e 115 239
e 115 240
e 115 246
e 116 117
e 116 148
e 116 158
e 116 181
e 116 191
e 116 194
e 116 218
e 116 219
e 116 232
e 116 237
e 117 126
e 117 128
e 117 153
e 117 157
e 117 164
e 117 166
e 117 172
e 117 179
e 117 188
e 117 192
e 117 201
e 117 215
e 117 231
e 117 244
e 118 137
e 118 152
e 118 162
e 118 174
e 118 184
e 118 186
e 118 215
e 118 217
e 118 222
e 118 228
e 118 235
e 118 238
e 118 244
e 119 128
e 119 137
e 119 155
e 119 160
e 119 168
e 119 170
e 119 177
e 119 193
e 119 194
e 119 217
e 119 219
e 119 222
e 119 234
e 119 244
e 120 128
e 120 133
e 120 153
e 120 154
e 120 156
e 120 168
e 120 171
e 120 187
e 120 247
e 121 132
e 121 135
e 121 143
e 121 160
e 121 162
e 121 163
e 121 171
e 121 194
e 121 208
e 121 212
e 121 219
e 121 225
e 121 233
e 121 241
e 122 127
e 122 159
e 122 160
e 122 168
e 122 176
e 122 185
e 122 209
e 122 213
e 122 223
e 122 228
e 122 233
e 123 125
e 123 132
e 123 145
e 123 147
e 123 158
e 123 163
e 123 187
e 123 189
e 123 191
e 123 192
e 123 201
e 123 206
e 123 214
e 123 223
e 123 240
e 123 249
e 124 131
e 124 132
e 124 133
e 124 143
e 124 153
e 124 154
e 124 170
e 124 177
e 124 183
e 124 186
e 124 188
e 124 201
e 124 207
e 124 208
e 124 214
e 124 215
e 124 224
e 124 238
e 125 152
e 125 169
e 125 186
e 125 203
e 126 163
e 126 171
e 126 172
e 126 178
e 126 189
e 126 197
e 126 201
e 126 213
e 126 216
e 126 244
e 126 249
e 126 250
e 127 139
e 127 143
e 127 146
e 127 157
e 127 158
e 127 162
e 127 184
e 127 195
e 127 220
e 127 221
e 127 232
e 127 233
e 128 129
e 128 132
e 128 136
e 128 150
e 128 165
e 128 194
e 128 197
e 128 198
e 128 210
e 128 221
e 128 224
e 128 242
e 128 249
e 129 130
e 129 135
e 129 140
e 129 143
e 129 146
e 129 171
e 129 181
e 129 188
e 129 201
e 129 217
e 129 222
e 129 229
e 129 231
e 129 242
e 130 133
e 130 144
e 130 145
e 130 156
e 130 162
e 130 164
e 130 170
e 130 180
e 130 184
e 130 185
e 130 191
e 130 199
e 130 221
e 130 237
e 131 135
e 131 194
e 131 199
e 131 205
e 131 208
e 131 213
e 131 226
e 131 240
e 131 243
e 132 133
e 132 155
e 132 171
e 132 180
e 132 181
e 132 187
e 132 204
e 132 207
e 132 216
e 132 217
e 132 221
e 132 228
e 132 235
e 133 144
e 133 146
e 133 147
e 133 154
e 133 185
e 133 189
e 133 210
e 133 218
e 133 220
e 133 221
e 133 224
e 133 239
e 134 140
e 134 154
e 134 171
e 134 179
e 134 201
e 134 205
e 134 208
e 134 210
e 134 216
e 134 219
e 134 222
e 134 231
e 134 246
e 135 140
e 135 146
e 135 150
e 135 153
e 135 160
e 135 163
e 135 184
e 135 207
e 135 214
e 135 215
e 135 222
e 135 230
e 135 232
e 135 242
e 135 244
e 135 246
e 136 137
e 136 149
e 136 164
e 136 170
e 136 176
e 136 182
e 136 187
e 136 217
e 136 222
e 136 225
e 136 229
e 136 244
e 136 246
e 137 142
e 137 149
e 137 153
e 137 170
e 137 174
e 137 204
e 137 205
e 137 209
e 137 211
e 137 221
e 137 250
e 138 171
e 138 181
e 138 189
e 138 194
e 138 220
e 138 225
e 138 229
e 138 231
e 139 141
e 139 146
e 139 155
e 139 178
e 139 185
e 139 189
e 139 191
e 139 193
e 139 213
e 139 221
e 140 159
e 140 167
e 140 168
e 140 173
e 140 185
e 140 186
e 140 197
e 140 198
e 140 206
e 140 209
e 140 212
e 140 239
e 141 153
e 141 193
e 141 202
e 141 208
e 141 222
e 141 225
e 142 154
e 142 156
e 142 161
e 142 162
e 142 165
e 142 180
e 142 181
e 142 183
e 142 192
e 142 202
e 142 208
e 142 216
e 142 240
e 143 144
e 143 146
e 143 166
e 143 169
e 143 183
e 143 185
e 143 205
e 143 208
e 143 219
e 143 222
e 143 225
e 143 236
e 144 147
e 144 154
e 144 165
e 144 166
e 144 170
e 144 171
e 144 174
e 144 196
e 144 212
e 144 217
e 144 224
e 144 235
e 144 236
e 144 246
e 145 149
e 145 171
e 145 175
e 145 182
e 145 194
e 145 211
e 145 214
e 145 222
e 145 229
e 145 248
e 145 250
e 146 147
e 146 150
e 146 158
e 146 162
e 146 165
e 146 183
e 146 186
e 146 200
e 146 205
e 146 239
e 146 242
e 147 149
e 147 150
e 147 156
e 147 159
e 147 167
e 147 196
e 147 216
e 147 219
e 148 186
e 148 188
e 148 189
e 148 192
e 148 217
e 148 223
e 148 230
e 148 232
e 148 233
e 148 235
e 148 243
e 148 246
e 148 247
e 149 151
e 149 160
e 149 165
e 149 166
e 149 176
e 149 190
e 149 194
e 149 205
e 149 208
e 149 213
e 149 239
e 149 240
e 150 152
e 150 169
e 150 179
e 150 232
e 150 235
e 150 237
e 151 154
e 151 158
e 151 163
e 151 165
e 151 173
e 151 178
e 151 197
e 151 200
e 151 201
e 151 203
e 151 212
e 151 217
e 152 170
e 152 172
e 152 179
e 152 188
e 152 189
e 152 204
e 152 206
e 152 217
e 152 218
e 152 224
e 152 225
e 152 229
e 152 237
e 152 247
e 153 170
e 153 176
e 153 182
e 153 191
e 153 214
e 153 225
e 154 171
e 154 183
e 154 193
e 154 223
e 154 244
e 154 248
e 155 160
e 155 172
e 155 173
e 155 180
e 155 188
e 155 189
e 155 193
e 155 195
e 155 206
e 155 215
e 155 217
e 155 226
e 155 234
e 155 244
e 156 166
e 156 171
e 156 174
e 156 176
e 156 181
e 156 183
e 156 185
e 156 203
e 156 206
e 156 207
e 156 228
e 156 243
e 156 248
e 156 250
e 157 164
e 157 169
e 157 179
e 157 180
e 157 184
e 157 190
e 157 195
e 157 220
e 157 227
e 157 237
e 157 239
e 157 242
e 157 248
e 157 249
e 158 162
e 158 168
e 158 176
e 158 195
e 158 199
e 158 200
e 158 229
e 158 232
e 159 169
e 159 171
e 159 188
e 159 215
e 160 173
e 160 174
e 160 180
e 160 186
e 160 195
e 160 203
e 160 208
e 160 214
e 160 215
e 160 219
e 160 236
e 160 244
e 160 247
e 161 164
e 161 181
e 161 182
e 161 185
e 161 192
e 161 209
e 161 217
e 161 220
e 161 234
e 162 190
e 162 192
e 162 193
e 162 221
e 162 226
e 162 232
e 163 195
e 163 222
e 163 233
e 163 246
e 164 181
e 164 192
e 164 193
e 164 194
e 164 200
e 164 204
e 164 214
e 164 219
e 164 229
e 165 174
e 165 193
e 165 195
e 165 198
e 165 200
e 165 205
e 165 210
e 165 230
e 165 233
e 165 242
e 166 198
e 166 199
e 166 208
e 166 211
e 166 216
e 166 218
e 166 232
e 166 239
e 166 250
e 167 173
e 167 179
e 167 180
e 167 185
e 167 195
e 167 203
e 167 209
e 167 210
e 167 220
e 167 224
e 167 228
e 167 239
e 168 177
e 168 186
e 168 194
e 168 199
e 168 204
e 168 219
e 168 221
e 168 225
e 168 243
e 168 247
e 168 250
e 169 170
e 169 205
e 169 223
e 169 250
e 170 187
e 170 190
e 170 197
e 170 223
e 170 231
e 171 178
e 171 182
e 171 192
e 171 198
e 171 203
e 171 215
e 171 223
e 171 235
e 172 176
e 172 177
e 172 202
e 172 208
e 172 209
e 172 212
e 172 224
e 172 225
e 172 226
e 172 244
e 172 245
e 173 182
e 173 192
e 173 214
e 173 232
e 174 176
e 174 179
e 174 201
e 174 210
e 174 227
e 174 243
e 174 250
e 175 179
e 175 180
e 175 188
e 175 192
e 175 199
e 175 203
e 175 216
e 175 234
e 175 238
e 175 239
e 175 246
e 175 247
e 176 178
e 176 188
e 176 193
e 176 199
e 176 211
e 176 217
e 176 225
e 176 247
e 177 180
e 177 184
e 177 190
e 177 193
e 177 209
e 177 211
e 177 217
e 177 229
e 177 233
e 177 234
e 178 189
e 178 202
e 178 213
e 178 217
e 178 224
e 178 226
e 178 245
e 178 247
e 179 184
e 179 195
e 179 196
e 179 205
e 179 207
e 179 213
e 179 216
e 179 243
e 180 192
e 180 205
e 180 211
e 180 237
e 181 185
e 181 189
e 181 190
e 181 193
e 181 195
e 181 206
e 181 213
e 181 227
e 181 228
e 181 229
e 181 235
e 182 191
e 182 196
e 182 197
e 182 218
e 182 231
e 182 237
e 182 246
e 182 247
e 183 196
e 183 236
e 183 246
e 184 200
e 184 224
e 184 234
e 185 195
e 185 229
e 185 239
e 185 240
e 185 246
e 185 247
e 186 196
e 186 208
e 186 218
e 186 249
e 187 196
e 187 203
e 187 214
e 187 216
e 187 224
e 187 231
e 187 239
e 187 246
e 187 250
e 188 196
e 188 217
e 188 220
e 188 223
e 188 228
e 188 230
e 188 232
e 188 233
e 188 242
e 189 217
e 189 222
e 189 223
e 189 241
e 189 242
e 190 191
e 190 192
e 190 232
e 190 238
e 190 249
e 190 250
e 191 200
e 191 210
e 191 213
e 191 218
e 191 228
e 191 250
e 192 204
e 192 222
e 192 224
e 192 231
e 192 233
e 192 238
e 192 239
e 193 200
e 193 201
e 193 203
e 193 209
e 193 210
e 193 214
e 193 217
e 193 229
e 193 230
e 193 233
e 193 243
e 193 246
e 194 204
e 194 210
e 194 219
e 195 200
e 195 239
e 195 243
e 196 215
e 196 224
e 196 225
e 196 242
e 196 247
e 197 239
e 197 250
e 198 210
e 199 205
e 199 220
e 199 223
e 199 236
e 199 248
e 200 206
e 200 209
e 200 216
e 200 233
e 200 236
e 200 239
e 200 245
e 200 246
e 201 210
e 201 212
e 201 219
e 201 226
e 202 211
e 202 214
e 202 223
e 202 234
e 202 235
e 202 237
e 202 240
e 203 211
e 203 215
e 203 216
e 203 224
e 203 230
e 203 233
e 203 246
e 203 248
e 203 249
e 204 216
e 204 217
e 204 218
e 204 220
e 205 218
e 205 229
e 205 231
e 205 239
e 206 213
e 206 224
e 206 237
e 207 213
e 207 216
e 207 225
e 207 238
e 208 209
e 208 225
e 208 235
e 208 247
e 208 249
e 208 250
e 209 216
e 209 217
e 209 223
e 209 236
e 209 237
e 210 212
e 210 223
e 210 241
e 211 219
e 211 220
e 211 227
e 211 232
e 211 234
e 211 238
e 212 228
e 213 217
e 213 220
e 213 223
e 213 226
e 213 228
e 213 242
e 213 246
e 214 219
e 214 222
e 214 244
e 214 245
e 214 248
e 215 227
e 215 238
e 216 223
e 216 233
e 216 235
e 216 248
e 217 220
e 217 221
e 217 222
e 217 239
e 218 227
e 218 233
e 219 229
e 219 240
e 219 244
e 219 245
e 219 247
e 220 223
e 220 227
e 220 228
e 220 230
e 220 231
e 220 235
e 220 244
e 221 222
e 221 231
e 221 247
e 222 241
e 222 249
e 222 250
e 223 227
e 223 235
e 223 243
e 223 246
e 224 227
e 224 232
e 224 241
e 224 245
e 224 248
e 225 240
e 225 243
e 226 234
e 226 239
e 226 240
e 227 237
e 228 249
e 229 236
e 229 250
e 230 233
e 231 236
e 231 242
e 232 237
e 233 235
e 234 250
e 235 250
e 236 247
e 237 243
e 238 249
e 238 250
e 241 245
e 241 247
e 242 244
e 242 246
e 249 250
